#set group ${material_2} charge 0
timestep ${timesize}
velocity all create ${DMDAnn_T} ${seed} mom yes rot yes dist gaussian 
velocity all scale ${DMDAnn_T} 
fix 123 ${material_2} spring/self 10.0
#fix 456 ${material_1} spring/self 10.0
fix 4 all shake 0.0001 20 0 b 94 95
fix_modify 123 energy yes
fix 2 all nvt temp ${DMDAnn_T} 300.0 ${Tdamp}
thermo_style custom step temp etotal v_m1m2E c_m1m2E 
thermo 100		
run	  ${DMD_step}
unfix 2
unfix 123
#unfix 456
unfix 4

#set group all charge v_q
	#OPT LJ & Charge
		#fix 123 ${material_2} spring/self 10.0
		#fix_modify 123 energy yes
		#  min_style cg
		#  minimize 0.0 1e-6 1000 1000 #1w~10w
		#unfix 123
		#include system_opt_100.in #opt after NVT
		
#	shell cd ${FoldName}
#	###Dump
#		dump 1 all custom 1 S_${Big_BH_No}_${BH_No}.cfg id type x y z mol
#		#write_data S_${Big_BH_No}_${BH_No}.data nocoeff
#		run	  0
#	undump 1
#	shell cd ..